simple_cplex_prototype/instances/minha/csp10.lp
\ENCODING=ISO-8859-1
\Problem name: spp

Minimize
 obj: 6 x1 + 15 x2 + 16 x3 + 8 x4 + 16 x5 + 15 x6 + 18 x7 + 16 x8 + 2 x9
      + 11 x10 + 12 x11 + 7 x12 + 15 x13 + 14 x14 + 5 x15 + 13 x16 + 12 x17
      + 11 x18 + 10 x19 + 9 x20 + 10 x21 + 8 x22 + 7 x23
Subject To
 c1: x1 + x2 + x3 + x4 + x5 + x6 + x7 + x8  = 1
 c2: x9 + x10 + x11 + x12 + x13 + x14  = 1
 c3: x15 + x16 + x17 + x18 + x19  = 1
 c4: x1 + x2 + x3 + x9 + x10 + x11 + x20 + x21  = 1
 c5: x4 + x5 + x6 + x12 + x13 + x14 + x15 + x16 + x17 + x22 + x23  = 1
 c6: x2 + x7 + x10 + x20  = 1
 c7: x3 + x5 + x8 + x11 + x13 + x16 + x18 + x21 + x22  = 1
 c8: x6 + x14 + x17 + x19 + x23  = 1
Bounds
 0 <= x1 <= 1
 0 <= x2 <= 1
 0 <= x3 <= 1
 0 <= x4 <= 1
 0 <= x5 <= 1
 0 <= x6 <= 1
 0 <= x7 <= 1
 0 <= x8 <= 1
 0 <= x9 <= 1
 0 <= x10 <= 1
 0 <= x11 <= 1
 0 <= x12 <= 1
 0 <= x13 <= 1
 0 <= x14 <= 1
 0 <= x15 <= 1
 0 <= x16 <= 1
 0 <= x17 <= 1
 0 <= x18 <= 1
 0 <= x19 <= 1
 0 <= x20 <= 1
 0 <= x21 <= 1
 0 <= x22 <= 1
 0 <= x23 <= 1
End
