simple_soplex_prototype/csp10.txt
8 20
1 3
1 4
1 5
4 6
5 9
8 12
10 15
11 14
1 4 6
1 5 8
2 4 2
2 5 7
3 5 5
4 6 9
4 7 10
5 7 8
5 8 7
